c --- [ banner ] -------------------------------------------------------------
c 
c CaDiCaL Radically Simplified CDCL SAT Solver
c Copyright (c) 2016-2021 A. Biere, M. Fleury, N. Froleyks
c 
c Version 1.5.2 a5f15211db36c3956764e18194dd5bd63bf3b5e6
c g++ (GCC) 9.3.0 -Wall -Wextra -O3 -DNDEBUG
c Fri Oct 21 01:27:37 EDT 2022 Linux gra-login3 3.10.0-1160.66.1.el7.x86_64 x86_64
c 
c --- [ limit ] --------------------------------------------------------------
c 
c setting conflict limit to 200000 conflicts (due to '200000')
c 
c --- [ parsing input ] ------------------------------------------------------
c 
c reading DIMACS file from '33.cubes5608.adj'
c opening file to read '33.cubes5608.adj'
c found 'p cnf 6160 1595481' header
c parsed 1595481 clauses in 19.87 seconds process time
c closing file '33.cubes5608.adj'
c after reading 1457566818 bytes 1390.0 MB
c 
c --- [ options ] ------------------------------------------------------------
c 
c all options are set to their default value
c 
c --- [ solving ] ------------------------------------------------------------
c 
c time measured in process time since initialization
c 
c  seconds    reductions  redundant   irredundant
c          MB     restarts       trail       variables
c            level   conflicts       glue         remaining
c 
c * 19.88 1383  0 0   0    0    0  0% 0 1595422 2309 37%
c { 21.01 1436  0 0   0    0    0  0% 0 1595422 2309 37%
c i 22.92 1486 607 0   1   85   73 29% 5 1595422 2308 37%
c - 28.02 1449 163 1  59  301  114 22% 7 335125 2308 37%
c i 28.64 1423 57 1  67  981  205 21% 7 335125 2307 37%
c } 28.69 1423 59 1  69 1002  226 21% 7 335125 2307 37%
c [ 28.69 1423  0 1  69 1002  226  0% 0 335125 2307 37%
c O 28.69 1423  1 1  69 1003  226 12% 0 335125 2307 37%
c i 28.69 1423  1 1  69 1003  226 12% 0 335125 2290 37%
c i 28.96 1423 32 1  69 1204  380 32% 25 335125 2289 37%
c - 29.53 1485 32 2  69 1216  369 32% 25 334798 2289 37%
c i 29.74 1485 33 2  69 1422  534 32% 26 334798 2288 37%
c i 29.86 1485 32 2  69 1627  676 32% 25 334798 2287 37%
c i 29.86 1485 32 2  69 1628  676 32% 25 334798 2286 37%
c i 29.92 1485 31 2  69 1740  754 32% 25 334798 2285 37%
c i 29.92 1485 31 2  69 1741  754 32% 25 334798 2284 37%
c i 29.97 1485 31 2  69 1841  823 32% 25 334798 2283 37%
c - 30.87 1484 28 3  70 2590 1220 31% 24 334780 2283 37%
c ] 31.36 1484 27 3  70 3005 1476 53% 23 334780 2283 37%
c { 31.36 1484 59 3  70 3005 1476 56% 7 334780 2283 37%
c 
c  seconds    reductions  redundant  irredundant
c          MB     restarts       trail      variables
c            level   conflicts       glue        remaining
c 
c F 31.37 1484 59 3  71 3006 1477 56% 7 334780 2283 37%
c i 31.38 1484 58 3  71 3008 1478 56% 7 334780 2282 37%
c i 31.40 1484 58 3  72 3010 1479 56% 7 334780 2281 37%
c i 31.40 1484 58 3  72 3011 1479 56% 7 334780 2280 37%
c i 31.54 1484 58 3  80 3037 1501 55% 7 334780 2279 37%
c i 31.60 1484 58 3  82 3048 1511 55% 7 334780 2276 37%
c i 32.03 1484 58 3  94 3095 1544 54% 8 334780 2270 37%
c i 32.03 1484 58 3  95 3096 1544 54% 8 334780 2269 37%
c i 33.37 1484 60 3 138 3262 1692 52% 11 334780 2268 37%
c i 35.97 1484 63 3 219 3567 1949 50% 15 334780 2267 37%
c i 36.88 1484 61 3 246 3695 2057 49% 15 334780 2266 37%
c i 36.95 1484 61 3 247 3713 2069 49% 16 334780 2265 37%
c i 36.95 1484 61 3 248 3714 2069 49% 16 334780 2264 37%
c i 36.96 1484 61 3 251 3727 2080 49% 16 334780 2263 37%
c i 37.08 1484 61 3 255 3743 2093 49% 16 334780 2262 37%
c i 37.27 1484 60 3 275 3831 2161 49% 17 334780 2261 37%
c i 37.72 1484 60 3 336 4116 2384 48% 18 334780 2260 37%
c i 37.91 1484 58 3 358 4272 2491 48% 18 334780 2259 37%
c - 38.62 1479 56 4 375 4421 1917 48% 18 334302 2259 37%
c i 38.79 1479 54 4 377 4539 1991 47% 18 334302 2258 37%
c 
c  seconds    reductions  redundant   irredundant
c          MB     restarts       trail       variables
c            level   conflicts       glue         remaining
c 
c i 38.82 1479 54 4 377 4585 2027 47% 18 334302 2257 37%
c i 38.91 1479 53 4 383 4662 2071 48% 18 334302 2256 37%
c i 39.01 1479 53 4 396 4721 2115 48% 19 334302 2255 37%
c d 39.65 1479 50 4 406 5000 2254 48% 18 334281 2250 37%
c 2 39.73 1479 50 4 406 5000 2934 48% 18 334274 2250 37%
c p 44.74 1479 50 4 406 5000 5411 48% 18 334274 2195 36%
c d 45.18 1479 50 4 406 5000 5392 48% 18 280326 2192 36%
c # 46.99 1479 45 4 497 6007 6227 48% 19 280324 2191 36%
c - 48.37 1350 42 5 516 6707 2809 48% 19 280324 2191 36%
c } 50.61 1350 44 5 585 7007 3069 48% 20 280324 2191 36%
c [ 50.61 1350 27 5 585 7007 3069 53% 23 280324 2191 36%
c - 52.61 1350 28 6 587 9312 3235 49% 24 280324 2191 36%
c I 53.23 1350 29 6 587 10008 3691 49% 25 280324 2191 36%
c - 56.27 1350 29 7 589 12354 3852 48% 24 280324 2191 36%
c p 60.57 1350 27 7 590 15001 9177 47% 22 280324 2191 36%
c ] 60.79 1350 27 7 590 15008 9184 47% 22 280324 2191 36%
c { 60.79 1350 44 7 590 15008 9184 48% 20 280324 2191 36%
c B 60.82 1350 44 7 591 15009 9185 48% 20 280324 2191 36%
c - 65.37 1350 46 8 781 15828 4553 47% 22 280324 2191 36%
c s 70.27 1350 40 8 962 18865 6677 47% 21 277172 2191 36%
c 
c  seconds    reductions   redundant   irredundant
c          MB     restarts        trail       variables
c            level    conflicts       glue         remaining
c 
c v 74.72 1350 40 8 962 18865 6677 47% 21 277156 2191 36%
c t 74.86 1350 40 8 962 18865 6658 47% 21 277140 2191 36%
c e 75.87 1353 40 8 962 18865 6421 47% 21 275195 1032 17%
c s 75.98 1352 40 8 962 18865 6421 47% 21 275021 1032 17%
c - 79.84 1353 41 9 1070 19736 5125 64% 22 275021 1032 17%
c W 82.71 1353 40 9 1128 21010 6130 64% 22 275021 1032 17%
c - 89.63 1354 39 10 1311 24055 5862 64% 22 275021 1032 17%
c F 91.90 1354 34 10 1372 28011 8276 65% 20 275021 1032 17%
c - 95.86 1354 35 11 1523 28808 6226 64% 21 275021 1032 17%
c 3 99.48 1353 35 11 1664 30001 7695 64% 21 275021 1032 17%
c p 100.94 1353 35 11 1664 30001 9513 64% 21 275021 1032 17%
c } 101.94 1353 34 11 1685 31011 10258 64% 21 275021 1032 17%
c [ 101.94 1353 27 11 1685 31011 10258 105% 22 275021 1032 17%
c - 103.83 1354 26 12 1686 33989 7130 95% 22 275021 1032 17%
c B 105.27 1353 25 12 1688 36014 8378 90% 22 275021 1032 17%
c - 107.71 1354 26 13 1690 39602 7849 85% 22 275021 1032 17%
c W 111.78 1353 26 13 1692 45016 11550 81% 22 275021 1032 17%
c - 112.26 1354 26 14 1692 45649 8174 80% 22 275021 1032 17%
c ] 112.30 1354 26 14 1692 45709 8221 80% 22 275021 1032 17%
c 1 112.30 1354 26 14 1692 45709 8221 80% 22 275021 1032 17%
c 
c --- [ writing output ] -----------------------------------------------------
c 
c writing simplified CNF to DIMACS file 'simp/33.cubes5608.adj.simp1'
c 
c  seconds     reductions     redundant   irredundant
c           MB      restarts         trail       variables
c             level      conflicts       glue         remaining
c 
c * 112.30 1354 26 14 1692 45709 8221 80% 22 275021 1032 17%
c opening file to write 'simp/33.cubes5608.adj.simp1'
c writing 'p cnf 6160 275021' header
c closing file 'simp/33.cubes5608.adj.simp1'
c after writing 114837311 bytes 109.5 MB
c wrote 275021 clauses in 0.91 seconds process time
c 
c --- [ writing extension ] --------------------------------------------------
c 
c writing extension stack to 'simp/33.cubes5608.adj.ext1'
c opening file to write 'simp/33.cubes5608.adj.ext1'
c closing file 'simp/33.cubes5608.adj.ext1'
c after writing 76554 bytes 0.1 MB
c wrote 3483 witnesses in 0.00 seconds process time
c 
c --- [ result ] -------------------------------------------------------------
c 
s SATISFIABLE
c 
c --- [ run-time profiling ] -------------------------------------------------
c 
c process time taken by individual solving procedures
c (percentage relative to process time for solving)
c 
c        76.15   82.39% search
c        53.60   58.00% unstable
c        20.12   21.77% stable
c        19.87   21.50% parse
c        16.28   17.61% simplify
c         8.35    9.04% probe
c         4.55    4.93% vivify
c         1.78    1.92% elim
c         1.29    1.39% walk
c         1.14    1.23% lucky
c         0.23    0.25% subsume
c         0.13    0.14% ternary
c   =================================
c        92.43   81.64% solve
c 
c last line shows process time for solving
c (percentage relative to total process time)
c 
c --- [ statistics ] ---------------------------------------------------------
c 
c chronological:              8719        19.08 %  of conflicts
c conflicts:                 45709       494.54    per second
c decisions:                142348      1540.12    per second
c eliminated:                 1159        18.81 %  of all variables
c fixed:                       816        13.25 %  of all variables
c learned:                   44651        97.69 %  per conflict
c learned_lits:            7670047       100.00 %  learned literals
c minimized:                     0         0.00 %  learned literals
c shrunken:                4956977        64.63 %  learned literals
c minishrunken:             567803         7.40 %  learned literals
c propagations:            4905847         0.05 M  per second
c reduced:                   23247        50.86 %  per conflict
c rephased:                      9      5078.78    interval
c restarts:                   1692        27.01    interval
c stabilizing:                   3        54.04 %  of conflicts
c substituted:                   9         0.15 %  of all variables
c subsumed:                  16363         0.48 %  of all clauses
c strengthened:               5877         0.17 %  of all clauses
c ternary:                    2326         0.57 %  of resolved
c vivified:                     28         0.00 %  of all clauses
c walked:                        2     22854.50    interval
c weakened:                   2667         3.00    average size
c 
c seconds are measured in process time for solving
c 
c --- [ resources ] ----------------------------------------------------------
c 
c total process time since initialization:       113.21    seconds
c total real time since initialization:          115.29    seconds
c maximum resident set size of process:         1621.08    MB
c 
c --- [ shutting down ] ------------------------------------------------------
c 
c exit 10
WARNING! DIMACS header mismatch: wrong number of variables.
============================[ Problem Statistics ]=============================
|                                                                             |
|  Number of variables:          6111                                         |
|  Number of clauses:          275021                                         |
|  Parse time:                   1.59 s                                       |
|  Simplification time:          0.03 s                                       |
|                                                                             |
============================[ Search Statistics ]====================================================
| Conflicts |          ORIGINAL         |          LEARNT          | Num Sols |      SUBGRAPHS      |
|           |    Vars  Clauses Literals |    Limit  Clauses Lit/Cl |          | Canonical Noncanon. |
=====================================================================================================
|       111 |    6018   275032 25228985 |     2000      111    122 |        0 |        17        11 |
|       264 |    6018   275035 25229040 |     2000      264    103 |        0 |        23        14 |
|       515 |    6018   275061 25229447 |     2000      515     88 |        0 |        40        40 |
|       885 |    6018   275094 25229998 |     2000      885     92 |        0 |        49        73 |
|      1408 |    6018   275111 25230329 |     2000     1408     92 |        0 |        68        90 |
|      2204 |    6018   275148 25231079 |     3600     1204     60 |        0 |        95       127 |
|      3598 |    6018   275403 25234767 |     3600     2598     76 |        0 |       168       382 |
|      5392 |    6018   275489 25236744 |     4999     2591     46 |        0 |       266       468 |
|      8004 |    6018   275539 25238047 |     6300     2704     34 |        0 |       293       518 |
|     12202 |    6018   275893 25244394 |     7552     3754     35 |        0 |       406       872 |
|     18099 |    6018   276024 25247196 |     8780     5879     52 |        0 |       472      1003 |
|     26985 |    6018   276261 25252666 |    11206     5391     29 |        0 |       572      1240 |
|     40095 |    6018   276397 25255576 |    13607     6702     28 |        0 |       681      1376 |
|     60393 |    6018   277234 25270256 |    16005    12798     55 |        0 |       963      2213 |
|     90348 |    6018   277997 25283242 |    19612    16960     64 |        0 |      1159      2976 |
|    137785 |    6018   281645 25339891 |    24410    21595     62 |        0 |      1910      6624 |
|    205555 |    6018   283731 25374304 |    30416    22371     57 |        0 |      2433      8710 |
|    306076 |    6018   285726 25405082 |    37609    22685     48 |        0 |      2816     10705 |
|    455940 |    6018   287801 25437833 |    46015    28355     55 |        0 |      3246     12780 |
|    681784 |    6018   291962 25506490 |    55623    53407     72 |        0 |      4265     16941 |
|   1019707 |    6018   297360 25610711 |    68811    52518     66 |        0 |      5958     22339 |
|   1522037 |    6018   300902 25688060 |    84413    60850     65 |        0 |      7511     25881 |
|   2275767 |    6018   306450 25808250 |   103614    67381     57 |        0 |      9580     31429 |
|   3402860 |    6018   311269 25917693 |   126419   107679     63 |        0 |     11424     36248 |
|   5093566 |    6018   318564 26072150 |   155225   115991     67 |        0 |     13498     43543 |
|   7650393 |    6018   350275 26684536 |   190036   178829     73 |        0 |     17469     75254 |
|  11451287 |    6018   363494 26983458 |   233211   181698     55 |        0 |     20510     88473 |
=====================================================================================================
Number of solutions   : 0
Canonical subgraphs   : 24205          (18 /sec)
          order  3    : 1              (200000 /sec)
          order  4    : 1              (500000 /sec)
          order  5    : 1              (200000 /sec)
          order  6    : 1              (55556 /sec)
          order  7    : 1              (8772 /sec)
          order  8    : 2              (1368 /sec)
          order  9    : 7              (353 /sec)
          order 10    : 31             (113 /sec)
          order 11    : 157            (40 /sec)
          order 12    : 968            (14 /sec)
          order 13    : 4519           (12 /sec)
          order 14    : 13714          (20 /sec)
          order 15    : 4264           (26 /sec)
          order 16    : 233            (24 /sec)
          order 17    : 154            (19 /sec)
          order 18    : 41             (13 /sec)
          order 19    : 33             (12 /sec)
          order 20    : 39             (11 /sec)
          order 21    : 38             (11 /sec)
          order 22    : 0              (-nan /sec)
Noncanonical subgraphs: 107674         (1290 /sec)
          order  3    : 0              (-nan /sec)
          order  4    : 0              (-nan /sec)
          order  5    : 0              (-nan /sec)
          order  6    : 0              (-nan /sec)
          order  7    : 0              (-nan /sec)
          order  8    : 0              (-nan /sec)
          order  9    : 0              (-nan /sec)
          order 10    : 0              (-nan /sec)
          order 11    : 0              (-nan /sec)
          order 12    : 0              (-nan /sec)
          order 13    : 21953          (3371 /sec)
          order 14    : 72773          (1764 /sec)
          order 15    : 7997           (1209 /sec)
          order 16    : 4802           (201 /sec)
          order 17    : 90             (88 /sec)
          order 18    : 17             (72 /sec)
          order 19    : 0              (-nan /sec)
          order 20    : 0              (-nan /sec)
          order 21    : 0              (-nan /sec)
Canonicity checking   : 1315.13 s
Noncanonicity checking: 83.4428 s
Total canonicity time : 1398.57 s
database reductions   : 223
restarts              : 23264
conflicts             : 15381511       (1886 /sec)
decisions             : 18972726       (0.00 % random) (2326 /sec)
propagations          : 885875905      (108606 /sec)
conflict literals     : 1564066579     (56.93 % deleted)
actual reward         : 0.207982
Memory used           : 421.00 MB
CPU time              : 8156.8 s

UNSATISFIABLE
